30
11
0 11 13 15 16 17 20 22 23 24 25 28 29
1 15 16 21 22 25 27 28
2 13 15 16 19 21 23 24 25 28 29
3 14 15 16 17 18 19 21 24 28
4 16 17 18 19 20 21 23 24 25 27 29
5 12 13 14 15 16 18 19 22 26 29
6 13 15 18 19 20 23 24 25 29
7 13 18 19 22 24 27 28
8 14 21 25 26 29
9 27
10 25
